% From JaCoP's nonogramRepository/data105.nin
 rows = 30;
 row_rule_len = 5;
 row_rules = array2d(1..rows, 1..row_rule_len, 
[
 0,0,0,0,1,
 0,0,0,0,9,
 0,0,0,0,13,
 0,0,0,0,15,
 0,0,0,0,15,
 0,0,0,0,17,
 1,1,1,1,1,
 0,0,0,3,1,
 0,0,0,3,1,
 0,0,0,7,1,
 0,0,0,3,1,
 0,0,0,3,1,
 0,0,0,4,1,
 0,0,0,4,1,
 0,0,0,5,1,
 0,0,0,6,3,
 0,0,0,0,12,
 0,0,0,12,1,
 0,0,0,11,4,
 0,0,0,0,8,
 0,0,0,0,9,
 0,0,0,0,10,
 0,0,0,0,10,
 0,0,0,0,8,
 0,0,0,0,8,
 0,0,0,5,3,
 0,0,0,4,3,
 0,0,0,4,3,
 0,0,0,3,3,
 0,0,0,4,4
]);

 cols = 25;
 col_rule_len = 4;
 col_rules = array2d(1..cols, 1..col_rule_len, 
[
 0,0,0,3,
 0,0,0,4,
 0,0,2,5,
 0,3,4,1,
 0,0,0,9,
 0,0,0,9,
 0,0,0,10,
 0,0,0,11,
 0,2,1,16,
 0,3,1,18,
 0,0,4,23,
 0,4,17,1,
 5,6,4,1,
 0,6,1,3,
 0,5,1,3,
 0,0,5,3,
 0,0,0,19,
 0,5,2,1,
 0,0,5,1,
 0,0,5,2,
 0,0,0,6,
 0,0,0,4,
 0,0,0,4,
 0,0,0,3,
 0,0,0,2
]);

